NAME: Golden_11
TYPE: CVRP
COMMENT: 918.45
DIMENSION: 400
CAPACITY: 1000
VEHICLES: 18
EDGE_WEIGHT_TYPE: FUNCTION
EDGE_WEIGHT_FORMAT: EUC_2D
NODE_COORD_TYPE: TWOD_COORDS
NODE_COORD_SECTION
1 -1.00000 -18.00000
2 1.00000 -18.00000
3 -2.00000 -17.00000
4 0.00000 -17.00000
5 2.00000 -17.00000
6 -3.00000 -16.00000
7 -1.00000 -16.00000
8 1.00000 -16.00000
9 3.00000 -16.00000
10 -4.00000 -15.00000
11 -2.00000 -15.00000
12 0.00000 -15.00000
13 2.00000 -15.00000
14 4.00000 -15.00000
15 -5.00000 -14.00000
16 -3.00000 -14.00000
17 -1.00000 -14.00000
18 1.00000 -14.00000
19 3.00000 -14.00000
20 5.00000 -14.00000
21 -6.00000 -13.00000
22 -4.00000 -13.00000
23 -2.00000 -13.00000
24 0.00000 -13.00000
25 2.00000 -13.00000
26 4.00000 -13.00000
27 6.00000 -13.00000
28 -7.00000 -12.00000
29 -5.00000 -12.00000
30 -3.00000 -12.00000
31 -1.00000 -12.00000
32 1.00000 -12.00000
33 3.00000 -12.00000
34 5.00000 -12.00000
35 7.00000 -12.00000
36 -8.00000 -11.00000
37 -6.00000 -11.00000
38 -4.00000 -11.00000
39 -2.00000 -11.00000
40 0.00000 -11.00000
41 2.00000 -11.00000
42 4.00000 -11.00000
43 6.00000 -11.00000
44 8.00000 -11.00000
45 -9.00000 -10.00000
46 -7.00000 -10.00000
47 -5.00000 -10.00000
48 -3.00000 -10.00000
49 -1.00000 -10.00000
50 1.00000 -10.00000
51 3.00000 -10.00000
52 5.00000 -10.00000
53 7.00000 -10.00000
54 9.00000 -10.00000
55 -10.00000 -9.00000
56 -8.00000 -9.00000
57 -6.00000 -9.00000
58 -4.00000 -9.00000
59 -2.00000 -9.00000
60 0.00000 -9.00000
61 2.00000 -9.00000
62 4.00000 -9.00000
63 6.00000 -9.00000
64 8.00000 -9.00000
65 10.00000 -9.00000
66 -11.00000 -8.00000
67 -9.00000 -8.00000
68 -7.00000 -8.00000
69 -5.00000 -8.00000
70 -3.00000 -8.00000
71 -1.00000 -8.00000
72 1.00000 -8.00000
73 3.00000 -8.00000
74 5.00000 -8.00000
75 7.00000 -8.00000
76 9.00000 -8.00000
77 11.00000 -8.00000
78 -12.00000 -7.00000
79 -10.00000 -7.00000
80 -8.00000 -7.00000
81 -6.00000 -7.00000
82 -4.00000 -7.00000
83 -2.00000 -7.00000
84 0.00000 -7.00000
85 2.00000 -7.00000
86 4.00000 -7.00000
87 6.00000 -7.00000
88 8.00000 -7.00000
89 10.00000 -7.00000
90 12.00000 -7.00000
91 -13.00000 -6.00000
92 -11.00000 -6.00000
93 -9.00000 -6.00000
94 -7.00000 -6.00000
95 -5.00000 -6.00000
96 -3.00000 -6.00000
97 -1.00000 -6.00000
98 1.00000 -6.00000
99 3.00000 -6.00000
100 5.00000 -6.00000
101 7.00000 -6.00000
102 9.00000 -6.00000
103 11.00000 -6.00000
104 13.00000 -6.00000
105 -14.00000 -5.00000
106 -12.00000 -5.00000
107 -10.00000 -5.00000
108 -8.00000 -5.00000
109 -6.00000 -5.00000
110 -4.00000 -5.00000
111 -2.00000 -5.00000
112 0.00000 -5.00000
113 2.00000 -5.00000
114 4.00000 -5.00000
115 6.00000 -5.00000
116 8.00000 -5.00000
117 10.00000 -5.00000
118 12.00000 -5.00000
119 14.00000 -5.00000
120 -15.00000 -4.00000
121 -13.00000 -4.00000
122 -11.00000 -4.00000
123 -9.00000 -4.00000
124 -7.00000 -4.00000
125 -5.00000 -4.00000
126 -3.00000 -4.00000
127 -1.00000 -4.00000
128 1.00000 -4.00000
129 3.00000 -4.00000
130 5.00000 -4.00000
131 7.00000 -4.00000
132 9.00000 -4.00000
133 11.00000 -4.00000
134 13.00000 -4.00000
135 15.00000 -4.00000
136 -16.00000 -3.00000
137 -14.00000 -3.00000
138 -12.00000 -3.00000
139 -10.00000 -3.00000
140 -8.00000 -3.00000
141 -6.00000 -3.00000
142 -4.00000 -3.00000
143 -2.00000 -3.00000
144 0.00000 -3.00000
145 2.00000 -3.00000
146 4.00000 -3.00000
147 6.00000 -3.00000
148 8.00000 -3.00000
149 10.00000 -3.00000
150 12.00000 -3.00000
151 14.00000 -3.00000
152 16.00000 -3.00000
153 -17.00000 -2.00000
154 -15.00000 -2.00000
155 -13.00000 -2.00000
156 -11.00000 -2.00000
157 -9.00000 -2.00000
158 -7.00000 -2.00000
159 -5.00000 -2.00000
160 -3.00000 -2.00000
161 -1.00000 -2.00000
162 1.00000 -2.00000
163 3.00000 -2.00000
164 5.00000 -2.00000
165 7.00000 -2.00000
166 9.00000 -2.00000
167 11.00000 -2.00000
168 13.00000 -2.00000
169 15.00000 -2.00000
170 17.00000 -2.00000
171 -18.00000 -1.00000
172 -16.00000 -1.00000
173 -14.00000 -1.00000
174 -12.00000 -1.00000
175 -10.00000 -1.00000
176 -8.00000 -1.00000
177 -6.00000 -1.00000
178 -4.00000 -1.00000
179 -2.00000 -1.00000
180 0.00000 -1.00000
181 2.00000 -1.00000
182 4.00000 -1.00000
183 6.00000 -1.00000
184 8.00000 -1.00000
185 10.00000 -1.00000
186 12.00000 -1.00000
187 14.00000 -1.00000
188 16.00000 -1.00000
189 18.00000 -1.00000
190 -19.00000 0.00000
191 -17.00000 0.00000
192 -15.00000 0.00000
193 -13.00000 0.00000
194 -11.00000 0.00000
195 -9.00000 0.00000
196 -7.00000 0.00000
197 -5.00000 0.00000
198 -3.00000 0.00000
199 -1.00000 0.00000
200 1.00000 0.00000
201 3.00000 0.00000
202 5.00000 0.00000
203 7.00000 0.00000
204 9.00000 0.00000
205 11.00000 0.00000
206 13.00000 0.00000
207 15.00000 0.00000
208 17.00000 0.00000
209 19.00000 0.00000
210 -18.00000 1.00000
211 -16.00000 1.00000
212 -14.00000 1.00000
213 -12.00000 1.00000
214 -10.00000 1.00000
215 -8.00000 1.00000
216 -6.00000 1.00000
217 -4.00000 1.00000
218 -2.00000 1.00000
219 0.00000 1.00000
220 2.00000 1.00000
221 4.00000 1.00000
222 6.00000 1.00000
223 8.00000 1.00000
224 10.00000 1.00000
225 12.00000 1.00000
226 14.00000 1.00000
227 16.00000 1.00000
228 18.00000 1.00000
229 -17.00000 2.00000
230 -15.00000 2.00000
231 -13.00000 2.00000
232 -11.00000 2.00000
233 -9.00000 2.00000
234 -7.00000 2.00000
235 -5.00000 2.00000
236 -3.00000 2.00000
237 -1.00000 2.00000
238 1.00000 2.00000
239 3.00000 2.00000
240 5.00000 2.00000
241 7.00000 2.00000
242 9.00000 2.00000
243 11.00000 2.00000
244 13.00000 2.00000
245 15.00000 2.00000
246 17.00000 2.00000
247 -16.00000 3.00000
248 -14.00000 3.00000
249 -12.00000 3.00000
250 -10.00000 3.00000
251 -8.00000 3.00000
252 -6.00000 3.00000
253 -4.00000 3.00000
254 -2.00000 3.00000
255 0.00000 3.00000
256 2.00000 3.00000
257 4.00000 3.00000
258 6.00000 3.00000
259 8.00000 3.00000
260 10.00000 3.00000
261 12.00000 3.00000
262 14.00000 3.00000
263 16.00000 3.00000
264 -15.00000 4.00000
265 -13.00000 4.00000
266 -11.00000 4.00000
267 -9.00000 4.00000
268 -7.00000 4.00000
269 -5.00000 4.00000
270 -3.00000 4.00000
271 -1.00000 4.00000
272 1.00000 4.00000
273 3.00000 4.00000
274 5.00000 4.00000
275 7.00000 4.00000
276 9.00000 4.00000
277 11.00000 4.00000
278 13.00000 4.00000
279 15.00000 4.00000
280 -14.00000 5.00000
281 -12.00000 5.00000
282 -10.00000 5.00000
283 -8.00000 5.00000
284 -6.00000 5.00000
285 -4.00000 5.00000
286 -2.00000 5.00000
287 0.00000 5.00000
288 2.00000 5.00000
289 4.00000 5.00000
290 6.00000 5.00000
291 8.00000 5.00000
292 10.00000 5.00000
293 12.00000 5.00000
294 14.00000 5.00000
295 -13.00000 6.00000
296 -11.00000 6.00000
297 -9.00000 6.00000
298 -7.00000 6.00000
299 -5.00000 6.00000
300 -3.00000 6.00000
301 -1.00000 6.00000
302 1.00000 6.00000
303 3.00000 6.00000
304 5.00000 6.00000
305 7.00000 6.00000
306 9.00000 6.00000
307 11.00000 6.00000
308 13.00000 6.00000
309 -12.00000 7.00000
310 -10.00000 7.00000
311 -8.00000 7.00000
312 -6.00000 7.00000
313 -4.00000 7.00000
314 -2.00000 7.00000
315 0.00000 7.00000
316 2.00000 7.00000
317 4.00000 7.00000
318 6.00000 7.00000
319 8.00000 7.00000
320 10.00000 7.00000
321 12.00000 7.00000
322 -11.00000 8.00000
323 -9.00000 8.00000
324 -7.00000 8.00000
325 -5.00000 8.00000
326 -3.00000 8.00000
327 -1.00000 8.00000
328 1.00000 8.00000
329 3.00000 8.00000
330 5.00000 8.00000
331 7.00000 8.00000
332 9.00000 8.00000
333 11.00000 8.00000
334 -10.00000 9.00000
335 -8.00000 9.00000
336 -6.00000 9.00000
337 -4.00000 9.00000
338 -2.00000 9.00000
339 0.00000 9.00000
340 2.00000 9.00000
341 4.00000 9.00000
342 6.00000 9.00000
343 8.00000 9.00000
344 10.00000 9.00000
345 -9.00000 10.00000
346 -7.00000 10.00000
347 -5.00000 10.00000
348 -3.00000 10.00000
349 -1.00000 10.00000
350 1.00000 10.00000
351 3.00000 10.00000
352 5.00000 10.00000
353 7.00000 10.00000
354 9.00000 10.00000
355 -8.00000 11.00000
356 -6.00000 11.00000
357 -4.00000 11.00000
358 -2.00000 11.00000
359 0.00000 11.00000
360 2.00000 11.00000
361 4.00000 11.00000
362 6.00000 11.00000
363 8.00000 11.00000
364 -7.00000 12.00000
365 -5.00000 12.00000
366 -3.00000 12.00000
367 -1.00000 12.00000
368 1.00000 12.00000
369 3.00000 12.00000
370 5.00000 12.00000
371 7.00000 12.00000
372 -6.00000 13.00000
373 -4.00000 13.00000
374 -2.00000 13.00000
375 0.00000 13.00000
376 2.00000 13.00000
377 4.00000 13.00000
378 6.00000 13.00000
379 -5.00000 14.00000
380 -3.00000 14.00000
381 -1.00000 14.00000
382 1.00000 14.00000
383 3.00000 14.00000
384 5.00000 14.00000
385 -4.00000 15.00000
386 -2.00000 15.00000
387 0.00000 15.00000
388 2.00000 15.00000
389 4.00000 15.00000
390 -3.00000 16.00000
391 -1.00000 16.00000
392 1.00000 16.00000
393 3.00000 16.00000
394 -2.00000 17.00000
395 0.00000 17.00000
396 2.00000 17.00000
397 -1.00000 18.00000
398 1.00000 18.00000
399 0.00000 19.00000
DEMAND_SECTION
1 300
2 300
3 180
4 300
5 180
6 128
7 180
8 180
9 128
10 100
11 128
12 180
13 128
14 100
15 81
16 100
17 128
18 128
19 100
20 81
21 69
22 81
23 100
24 128
25 100
26 81
27 69
28 60
29 69
30 81
31 100
32 100
33 81
34 69
35 60
36 52
37 60
38 69
39 81
40 100
41 81
42 69
43 60
44 52
45 47
46 52
47 60
48 69
49 81
50 81
51 69
52 60
53 52
54 47
55 42
56 47
57 52
58 60
59 69
60 81
61 69
62 60
63 52
64 47
65 42
66 39
67 42
68 47
69 52
70 60
71 69
72 69
73 60
74 52
75 47
76 42
77 39
78 36
79 39
80 42
81 47
82 52
83 60
84 69
85 60
86 52
87 47
88 42
89 39
90 36
91 33
92 36
93 39
94 42
95 47
96 52
97 60
98 60
99 52
100 47
101 42
102 39
103 36
104 33
105 31
106 33
107 36
108 39
109 42
110 47
111 52
112 60
113 52
114 47
115 42
116 39
117 36
118 33
119 31
120 29
121 31
122 33
123 36
124 39
125 42
126 47
127 52
128 52
129 47
130 42
131 39
132 36
133 33
134 31
135 29
136 27
137 29
138 31
139 33
140 36
141 39
142 42
143 47
144 52
145 47
146 42
147 39
148 36
149 33
150 31
151 29
152 27
153 25
154 27
155 29
156 31
157 33
158 36
159 39
160 42
161 47
162 47
163 42
164 39
165 36
166 33
167 31
168 29
169 27
170 25
171 24
172 25
173 27
174 29
175 31
176 33
177 36
178 39
179 42
180 47
181 42
182 39
183 36
184 33
185 31
186 29
187 27
188 25
189 24
190 23
191 24
192 25
193 27
194 29
195 31
196 33
197 36
198 39
199 42
200 42
201 39
202 36
203 33
204 31
205 29
206 27
207 25
208 24
209 23
210 23
211 24
212 25
213 27
214 29
215 31
216 33
217 36
218 39
219 42
220 39
221 36
222 33
223 31
224 29
225 27
226 25
227 24
228 23
229 23
230 24
231 25
232 27
233 29
234 31
235 33
236 36
237 39
238 39
239 36
240 33
241 31
242 29
243 27
244 25
245 24
246 23
247 23
248 24
249 25
250 27
251 29
252 31
253 33
254 36
255 39
256 36
257 33
258 31
259 29
260 27
261 25
262 24
263 23
264 23
265 24
266 25
267 27
268 29
269 31
270 33
271 36
272 36
273 33
274 31
275 29
276 27
277 25
278 24
279 23
280 23
281 24
282 25
283 27
284 29
285 31
286 33
287 36
288 33
289 31
290 29
291 27
292 25
293 24
294 23
295 23
296 24
297 25
298 27
299 29
300 31
301 33
302 33
303 31
304 29
305 27
306 25
307 24
308 23
309 23
310 24
311 25
312 27
313 29
314 31
315 33
316 31
317 29
318 27
319 25
320 24
321 23
322 23
323 24
324 25
325 27
326 29
327 31
328 31
329 29
330 27
331 25
332 24
333 23
334 23
335 24
336 25
337 27
338 29
339 31
340 29
341 27
342 25
343 24
344 23
345 23
346 24
347 25
348 27
349 29
350 29
351 27
352 25
353 24
354 23
355 23
356 24
357 25
358 27
359 29
360 27
361 25
362 24
363 23
364 23
365 24
366 25
367 27
368 27
369 25
370 24
371 23
372 23
373 24
374 25
375 27
376 25
377 24
378 23
379 23
380 24
381 25
382 25
383 24
384 23
385 23
386 24
387 25
388 24
389 23
390 23
391 24
392 24
393 23
394 23
395 24
396 23
397 23
398 23
399 23
DEPOT_SECTION
0.00000 -19.00000
-1
EOF
